r = [
0,14,8,9,6,8,10,12,17,9,3,0
];
p = [
0,24,29,21,3,8,6,17,23,24,23,0
];
e = [
0,5,20,1,19,1,11,2,14,15,19,0
];
d = [
0,171,164,167,158,162,161,176,168,166,161,178
];
d_bar = [
0,173,167,169,159,163,162,178,170,168,163,178
];
w = [
0,2.5,6.666666667,0.5,19,1,11,1,7,7.5,9.5,0
];
